10 1000000000
673115425 766412355 428385669 197489309 195616854 943783548 308620877 285439286 126995987 994356572
-363212457 -953450486 564918017 -180179698 324194990 -58611538 -115357185 -292471866 588106821 919893611
